(synth-fun condition ((do_display Bool) (LOWFAT_GLOBAL_MS__readelf_get_data_423 Int)) Bool ((Start Int (7 8 9 LOWFAT_GLOBAL_MS__readelf_get_data_423)) (StartBool Bool (true false (< Start Start) (<= Start Start) (and StartBool StartBool) (or StartBool StartBool) (not StartBool) (= Start Start) (= StartBool StartBool) do_display))))
(declare-var do_display Bool)
(declare-var LOWFAT_GLOBAL_MS__readelf_get_data_423 Int)
(constraint (=> (condition do_display LOWFAT_GLOBAL_MS__readelf_get_data_423) (or (not (= False do_display)) (< 8 LOWFAT_GLOBAL_MS__readelf_get_data_423))))
(sketch condition (not do_display))